# Solution for model r5_t9_m9_3 Batch Number: 1
# Finished Task: 9 / 9
# Makespan: 484.0, Total Distance: 196.0, Total Time: 1.3025
# R O S F Batch
0 0 -1 0.0 0.0 -1
1 1 13 0.0 0.0 -1
2 2 -1 0.0 0.0 -1
3 3 8 0.0 0.0 -1
4 4 9 0.0 0.0 -1
5 4 -1 347.0 381.0 0
6 1 11 424.0 450.0 0
7 1 6 263.0 285.0 0
8 3 12 281.0 309.0 0
9 4 5 285.0 315.0 0
10 3 -1 397.0 424.0 0
11 1 -1 450.0 484.0 0
12 3 10 335.0 368.0 0
13 1 7 231.0 252.0 0
